(set-option :print-success false)
(set-logic QF_UF)
(declare-sort x67 0)
(declare-sort x15 0)
(declare-fun x155 (x15 x15) x15)
(declare-fun x39 (x15 x15) x15)
(declare-fun x104 () x15)
(declare-fun x140 () x15)
(declare-fun x41 () x15)
(declare-fun x8 () x15)
(declare-fun x28 () x15)
(assert (let ((x92 (x39 x28 x140)) (x127 (x39 x28 x8)) (x103 (x39 x8 x28)) (x135 (x39 x140 x104)) (x125 (x39 x104 x41)) (x150 (x39 x104 x28)) (x110 (= (x39 x28 x28) x28)) (x134 (x39 x140 x28)) (x54 (x39 x8 x41)) (x123 (x39 x104 x8)) (x119 (x39 x41 x104)) (x88 (x39 x28 x41)) (x23 (= (x39 x104 x104) x104)) (x5 (x39 x41 x8)) (x60 (x39 x140 x8)) (x27 (= x41 (x39 x41 x41))) (x49 (x39 x28 x104)) (x76 (x39 x41 x140)) (x79 (x39 x41 x28)) (x32 (= x140 (x39 x140 x140))) (x72 (x39 x140 x41)) (x56 (= (x39 x8 x8) x8)) (x113 (x39 x104 x140)) (x45 (x39 x8 x140)) (x149 (x39 x8 x104))) (or (or (or (or (and (= x88 x28) (not (= x28 x79))) (or (and (not (= x134 x28)) (= x28 x92)) (and (not (= x103 x28)) (= x28 x127)))) (and (not (= x28 x150)) (= x28 x49))) (and x110 (not x110))) (or (or (or (and (= x79 x41) (not (= x88 x41))) (or (or (and (not x27) x27) (or (and (not (= x41 x72)) (= x76 x41)) (and (= x41 x5) (not (= x41 x54))))) (and (not (= x41 x125)) (= x41 x119)))) (or (or (and (= x8 x103) (not (= x127 x8))) (or (or (or (and (not x56) x56) (and (= x8 x45) (not (= x8 x60)))) (and (= x54 x8) (not (= x8 x5)))) (and (not (= x123 x8)) (= x149 x8)))) (or (and (not (= x92 x140)) (= x134 x140)) (or (and (not (= x113 x140)) (= x135 x140)) (or (and (= x72 x140) (not (= x76 x140))) (or (and x32 (not x32)) (and (= x60 x140) (not (= x140 x45))))))))) (or (or (and x23 (not x23)) (or (and (= x125 x104) (not (= x104 x119))) (or (and (not (= x135 x104)) (= x104 x113)) (and (not (= x149 x104)) (= x123 x104))))) (and (not (= x49 x104)) (= x150 x104)))))))
(assert (and (not (= x104 x28)) (and (and (and (and (and (and (not (= x28 x8)) (and (not (= x8 x104)) (and (not (= x8 x41)) (not (= x8 x140))))) (not (= x41 x140))) (not (= x104 x140))) (not (= x28 x140))) (not (= x104 x41))) (not (= x41 x28)))))
(assert (let ((x25 (x39 x104 x104)) (x72 (x39 x104 x8)) (x134 (x39 x140 x140)) (x127 (x39 x8 x28)) (x150 (x39 x140 x28)) (x49 (x39 x140 x104)) (x137 (x39 x104 x28)) (x123 (x39 x28 x8)) (x34 (x39 x104 x41)) (x60 (x39 x8 x8)) (x11 (x39 x28 x104)) (x117 (x39 x104 x140)) (x119 (x39 x8 x41)) (x54 (x39 x41 x8)) (x133 (x39 x28 x28)) (x156 (x39 x41 x104)) (x79 (x39 x140 x41)) (x29 (x39 x41 x28)) (x62 (x39 x28 x140)) (x93 (x39 x41 x140)) (x32 (x39 x140 x8)) (x23 (x39 x8 x104)) (x85 (x39 x28 x41)) (x91 (x39 x41 x41)) (x135 (x39 x8 x140))) (let ((x63 (= x62 x41)) (x30 (= x8 x93)) (x13 (= x133 x104)) (x80 (= x104 x23)) (x10 (= x72 x104)) (x120 (= x134 x41)) (x139 (= x23 x28)) (x99 (= x140 x79)) (x59 (= x23 x8)) (x70 (= x41 x29)) (x96 (= x41 x93)) (x50 (= x29 x104)) (x115 (= x28 x119)) (x95 (= x8 x117)) (x47 (= x11 x41)) (x38 (= x25 x41)) (x153 (= x28 x29)) (x77 (= x117 x28)) (x19 (= x140 x62)) (x73 (= x91 x104)) (x113 (= x135 x8)) (x122 (= x72 x41)) (x152 (= x41 x60)) (x97 (= x134 x104)) (x46 (= x156 x41)) (x21 (= x150 x140)) (x24 (= x140 x156)) (x129 (= x28 x79)) (x40 (= x41 x119)) (x12 (= x91 x28)) (x31 (= x28 x150)) (x90 (= x41 x49)) (x149 (= x140 x60)) (x44 (= x41 x91)) (x114 (= x150 x104)) (x61 (= x28 x133)) (x27 (= x8 x123)) (x9 (= x91 x8)) (x87 (= x49 x104)) (x58 (= x62 x8)) (x81 (= x137 x104)) (x143 (= x8 x137)) (x55 (= x140 x119)) (x108 (= x54 x104)) (x6 (= x140 x11)) (x43 (= x123 x140)) (x17 (= x28 x54)) (x103 (= x140 x32)) (x112 (= x41 x54)) (x53 (= x28 x49)) (x18 (= x28 x156)) (x57 (= x41 x117)) (x102 (= x133 x41)) (x138 (= x32 x28)) (x151 (= x104 x93)) (x64 (= x11 x8)) (x83 (= x29 x140)) (x88 (= x140 x134)) (x128 (= x104 x32)) (x111 (= x79 x104)) (x7 (= x29 x8)) (x74 (= x91 x140)) (x124 (= x28 x60)) (x159 (= x60 x104)) (x147 (= x8 x25)) (x92 (= x134 x8)) (x78 (= x119 x8)) (x158 (= x25 x28)) (x37 (= x49 x140)) (x94 (= x41 x79)) (x35 (= x140 x23)) (x148 (= x8 x49)) (x1 (= x140 x93)) (x16 (= x72 x28)) (x75 (= x28 x134)) (x22 (= x8 x79)) (x42 (= x85 x104)) (x36 (= x32 x41)) (x126 (= x34 x8)) (x2 (= x28 x93)) (x89 (= x137 x28)) (x56 (= x60 x8)) (x130 (= x123 x28)) (x121 (= x85 x41)) (x69 (= x41 x123)) (x65 (= x135 x28)) (x51 (= x133 x8)) (x131 (= x140 x117)) (x52 (= x28 x62)) (x4 (= x127 x28)) (x76 (= x8 x72)) (x106 (= x140 x34)) (x68 (= x28 x34)) (x144 (= x104 x62)) (x82 (= x11 x104)) (x146 (= x127 x8)) (x71 (= x8 x150)) (x33 (= x8 x156)) (x66 (= x140 x25)) (x142 (= x34 x104)) (x132 (= x104 x123)) (x101 (= x34 x41)) (x20 (= x85 x140)) (x125 (= x135 x140)) (x5 (= x54 x8)) (x141 (= x133 x140)) (x157 (= x127 x140)) (x86 (= x150 x41)) (x116 (= x41 x137)) (x48 (= x104 x119)) (x3 (= x41 x135)) (x100 (= x137 x140)) (x109 (= x28 x11)) (x45 (= x32 x8)) (x110 (= x54 x140)) (x84 (= x127 x41)) (x154 (= x85 x28)) (x107 (= x23 x41)) (x136 (= x104 x156)) (x145 (= x104 x135)) (x26 (= x104 x25)) (x105 (= x104 x117)) (x14 (= x85 x8)) (x118 (= x127 x104)) (x98 (= x72 x140))) (or (and (and (or x61 (not x61)) (and (or x13 (not x109)) (and (or x102 (not x154)) (and (or x51 (not x130)) (or x141 (not x52)))))) (and (and (and (or (not x153) x153) (and (or (not x18) x50) (and (or x70 (not x12)) (and (or (not x2) x83) (or x7 (not x17)))))) (and (and (or x31 (not x31)) (and (or x114 (not x53)) (and (or (not x129) x86) (and (or (not x138) x71) (or (not x75) x21))))) (and (or x4 (not x4)) (and (or (not x139) x118) (and (and (or x157 (not x65)) (or (not x124) x146)) (or (not x115) x84)))))) (and (or x89 (not x89)) (and (or x81 (not x158)) (and (and (or (not x77) x100) (or (not x16) x143)) (or (not x68) x116)))))) (or (and (and (and (and (and (or (not x118) x139) (and (or (not x80) x80) (and (or x107 (not x48)) (and (or (not x159) x59) (or x35 (not x145)))))) (and (or x53 (not x114)) (and (or (not x87) x87) (and (or (not x111) x90) (and (or x37 (not x97)) (or x148 (not x128))))))) (and (and (or (not x136) x136) (and (and (or x24 (not x151)) (or (not x108) x33)) (or (not x73) x46))) (or (not x50) x18))) (and (and (or x26 (not x26)) (and (or x38 (not x142)) (and (or (not x105) x66) (or x147 (not x10))))) (or (not x81) x158))) (and (or (not x13) x109) (and (or x82 (not x82)) (and (or x47 (not x42)) (and (or (not x132) x64) (or x6 (not x144))))))) (or (and (and (or (not x102) x154) (and (and (and (or x14 (not x69)) (or x20 (not x63))) (or (not x121) x121)) (or x42 (not x47)))) (and (and (and (and (and (or x48 (not x107)) (and (or x40 (not x40)) (and (or (not x152) x78) (or x55 (not x3))))) (or (not x84) x115)) (and (and (and (and (or x99 (not x120)) (or x22 (not x36))) (or (not x94) x94)) (or x111 (not x90))) (or (not x86) x129))) (and (and (or x73 (not x46)) (and (or x44 (not x44)) (and (or (not x96) x74) (or x9 (not x112))))) (or (not x70) x12))) (and (or (not x116) x68) (and (and (or x101 (not x101)) (and (or (not x122) x126) (or x106 (not x57)))) (or (not x38) x142))))) (or (and (and (or x130 (not x51)) (and (and (and (or (not x58) x43) (or (not x27) x27)) (or x69 (not x14))) (or x132 (not x64)))) (and (and (or x16 (not x143)) (and (and (and (or x76 (not x76)) (or (not x95) x98)) (or (not x126) x122)) (or x10 (not x147)))) (and (and (and (and (or (not x148) x128) (and (or (not x22) x36) (and (or (not x92) x103) (or x45 (not x45))))) (or x138 (not x71))) (and (or (not x146) x124) (and (and (or (not x78) x152) (and (or x56 (not x56)) (or x149 (not x113)))) (or x159 (not x59))))) (and (and (or x108 (not x33)) (and (and (or x5 (not x5)) (or x110 (not x30))) (or x112 (not x9)))) (or (not x7) x17))))) (and (and (and (and (and (and (or x95 (not x98)) (or (not x131) x131)) (or x57 (not x106))) (or x105 (not x66))) (or (not x100) x77)) (and (and (and (and (or (not x37) x97) (and (or x120 (not x99)) (and (or x92 (not x103)) (or x88 (not x88))))) (or x75 (not x21))) (and (and (or (not x35) x145) (and (and (or x113 (not x149)) (or (not x125) x125)) (or (not x55) x3))) (or x65 (not x157)))) (and (or x2 (not x83)) (and (or (not x24) x151) (and (and (or (not x110) x30) (or x1 (not x1))) (or (not x74) x96)))))) (and (or x52 (not x141)) (and (and (and (or (not x43) x58) (or x19 (not x19))) (or x63 (not x20))) (or x144 (not x6))))))))))))
(assert (let ((x79 (x39 x140 x28)) (x93 (x39 x28 x140)) (x90 (x39 x28 x104)) (x21 (x39 x28 x28)) (x5 (x39 x8 x104)) (x54 (x39 x8 x28)) (x11 (x39 x41 x41)) (x27 (x39 x41 x8)) (x45 (x39 x8 x140)) (x134 (x39 x140 x41)) (x60 (x39 x8 x8)) (x88 (x39 x140 x104)) (x32 (x39 x8 x41)) (x123 (x39 x104 x8)) (x80 (x39 x104 x104)) (x128 (x39 x104 x28)) (x40 (x39 x104 x41)) (x36 (x39 x28 x41)) (x152 (x39 x41 x28)) (x72 (x39 x140 x8)) (x149 (x39 x28 x8)) (x30 (x39 x104 x140)) (x92 (x39 x140 x140)) (x133 (x39 x41 x104)) (x110 (x39 x41 x140))) (let ((x95 (= x104 x92)) (x42 (= x28 x133)) (x122 (= x104 x11)) (x131 (= x28 x45)) (x23 (= x45 x8)) (x130 (= x149 x28)) (x70 (= x79 x41)) (x58 (= x8 x134)) (x22 (= x27 x41)) (x63 (= x30 x8)) (x116 (= x79 x104)) (x31 (= x140 x21)) (x139 (= x8 x128)) (x18 (= x152 x41)) (x35 (= x123 x140)) (x44 (= x104 x134)) (x142 (= x104 x133)) (x77 (= x104 x36)) (x47 (= x28 x80)) (x50 (= x41 x128)) (x111 (= x140 x80)) (x55 (= x140 x11)) (x6 (= x28 x88)) (x158 (= x104 x152)) (x3 (= x134 x140)) (x37 (= x133 x140)) (x75 (= x140 x90)) (x86 (= x140 x79)) (x24 (= x88 x41)) (x150 (= x92 x140)) (x121 (= x5 x8)) (x84 (= x152 x8)) (x156 (= x41 x92)) (x66 (= x88 x104)) (x10 (= x30 x104)) (x68 (= x54 x104)) (x57 (= x110 x28)) (x20 (= x8 x40)) (x43 (= x32 x8)) (x71 (= x140 x36)) (x59 (= x133 x8)) (x114 (= x128 x140)) (x56 (= x8 x60)) (x138 (= x93 x140)) (x13 (= x128 x28)) (x129 (= x54 x140)) (x118 (= x8 x21)) (x25 (= x8 x27)) (x96 (= x104 x110)) (x51 (= x93 x28)) (x101 (= x134 x28)) (x53 (= x140 x152)) (x99 (= x41 x32)) (x69 (= x11 x28)) (x33 (= x41 x40)) (x46 (= x80 x41)) (x38 (= x104 x80)) (x119 (= x72 x8)) (x105 (= x104 x5)) (x73 (= x133 x41)) (x127 (= x92 x8)) (x146 (= x36 x8)) (x94 (= x134 x41)) (x4 (= x149 x140)) (x137 (= x110 x8)) (x91 (= x45 x41)) (x145 (= x8 x80)) (x108 (= x30 x41)) (x113 (= x60 x41)) (x102 (= x79 x28)) (x106 (= x32 x28)) (x89 (= x104 x21)) (x135 (= x104 x60)) (x151 (= x5 x41)) (x82 (= x8 x149)) (x136 (= x123 x104)) (x7 (= x41 x93)) (x65 (= x90 x8)) (x49 (= x140 x45)) (x159 (= x8 x88)) (x48 (= x30 x140)) (x147 (= x104 x40)) (x1 (= x41 x72)) (x87 (= x41 x123)) (x143 (= x93 x104)) (x64 (= x40 x28)) (x125 (= x28 x60)) (x124 (= x8 x93)) (x26 (= x28 x123)) (x83 (= x90 x41)) (x109 (= x28 x152)) (x16 (= x104 x149)) (x85 (= x140 x110)) (x12 (= x41 x54)) (x19 (= x27 x140)) (x62 (= x11 x8)) (x154 (= x54 x28)) (x78 (= x32 x140)) (x9 (= x27 x104)) (x76 (= x140 x60)) (x115 (= x79 x8)) (x74 (= x32 x104)) (x117 (= x28 x72)) (x157 (= x8 x54)) (x112 (= x11 x41)) (x132 (= x28 x30)) (x107 (= x140 x40)) (x148 (= x5 x140)) (x100 (= x90 x104)) (x61 (= x28 x21)) (x141 (= x28 x90)) (x153 (= x21 x41)) (x29 (= x104 x72)) (x17 (= x41 x149)) (x2 (= x41 x36)) (x81 (= x104 x128)) (x103 (= x140 x72)) (x120 (= x110 x41)) (x34 (= x92 x28)) (x52 (= x28 x36)) (x126 (= x27 x28)) (x14 (= x8 x123)) (x144 (= x5 x28)) (x97 (= x88 x140)) (x98 (= x45 x104))) (and (and (and (and (and (and (and (or (or (or x9 (or x29 x135)) x136) x16) (or (or (or x74 (or x98 x135)) x105) x68)) (and (and (or (or x151 (or (or x91 x113) x99)) x12) (or (or x87 (or (or x113 x1) x22)) x17)) (and (and (or x129 (or x148 (or (or x76 x49) x78))) (or (or (or (or x76 x103) x19) x35) x4)) (and (or (or x14 (or x25 (or x119 x56))) x82) (or (or x121 (or (or x23 x56) x43)) x157))))) (and (or (or (or x106 (or x125 x131)) x144) x154) (or (or x26 (or (or x117 x125) x126)) x130))) (and (and (or (or x6 (or x101 (or x34 x117))) x102) (or (or (or (or x131 x34) x57) x132) x51)) (and (and (and (or (or x108 (or (or x156 x91) x120)) x7) (or (or (or (or x156 x1) x94) x24) x70)) (and (and (or (or (or x137 (or x23 x127)) x63) x124) (or (or (or x58 (or x119 x127)) x159) x115)) (and (or x86 (or x97 (or x3 (or x150 x103)))) (or x138 (or (or x85 (or x150 x49)) x48))))) (and (or x116 (or x66 (or (or x29 x95) x44))) (or x143 (or (or (or x95 x98) x96) x10)))))) (and (and (or (or (or x69 (or x101 x106)) x64) x52) (or (or x42 (or (or x57 x126) x69)) x109)) (and (and (and (and (or (or x107 (or (or x78 x3) x55)) x71) (or (or (or x55 (or x19 x85)) x37) x53)) (and (or x146 (or (or (or x43 x58) x62) x20)) (or (or (or (or x137 x25) x62) x59) x84))) (and (or x18 (or (or (or x120 x22) x112) x73)) (or (or x33 (or (or x99 x94) x112)) x2))) (and (or (or (or (or x74 x44) x122) x147) x77) (or (or (or x122 (or x9 x96)) x142) x158))))) (and (and (or (or (or x64 (or x132 x26)) x47) x13) (or x141 (or x47 (or (or x144 x6) x42)))) (and (and (and (or x50 (or x46 (or x33 (or x108 x87)))) (or (or (or x73 (or x151 x24)) x46) x83)) (and (and (or x114 (or x111 (or (or x35 x48) x107))) (or (or x111 (or x37 (or x97 x148))) x75)) (and (or x139 (or x145 (or x20 (or x14 x63)))) (or x65 (or (or x59 (or x121 x159)) x145))))) (and (or (or (or x147 (or x10 x136)) x38) x81) (or x100 (or x38 (or x142 (or x105 x66)))))))) (and (and (or x61 (or (or (or x102 x154) x109) x13)) (or x61 (or x141 (or (or x130 x51) x52)))) (and (and (or (or (or (or x16 x143) x77) x100) x89) (or x89 (or x81 (or (or x68 x116) x158)))) (and (and (or x153 (or (or (or x70 x12) x18) x50)) (or (or (or (or x7 x17) x2) x83) x153)) (and (and (or x118 (or (or (or x157 x115) x84) x139)) (or x118 (or (or x146 (or x124 x82)) x65))) (and (or (or (or (or x86 x129) x53) x114) x31) (or (or x75 (or x71 (or x4 x138))) x31))))))))))
(assert (not (and (and (= x140 (x39 x28 x104)) (and (and (and (= x28 (x39 x28 x8)) (and (and (= x8 (x39 x104 x104)) (and (= x28 (x39 x104 x41)) (and (= (x39 x104 x140) x41) (and (= (x39 x104 x8) x104) (and (and (and (and (and (and (and (and (and (= (x39 x140 x140) x140) (and (= x41 (x39 x140 x8)) (and (= (x39 x8 x28) x104) (and (and (= (x39 x8 x41) x140) (and (= (x39 x8 x140) x28) (= x8 (x39 x8 x8)))) (= (x39 x8 x104) x41))))) (= (x39 x140 x41) x8)) (= x104 (x39 x140 x104))) (= (x39 x140 x28) x28)) (= x140 (x39 x41 x8))) (= (x39 x41 x140) x8)) (= x104 (x39 x41 x41))) (= (x39 x41 x104) x28)) (= (x39 x41 x28) x41)))))) (= (x39 x104 x28) x140))) (= (x39 x28 x140) x104)) (= (x39 x28 x41) x41))) (= x8 (x39 x28 x28)))))
(assert (let ((x32 (x39 x104 x104)) (x5 (x39 x28 x28)) (x45 (x39 x41 x41)) (x60 (x39 x140 x140)) (x56 (x39 x8 x8))) (or (and (not (= x28 x5)) (and (not (= x32 x28)) (and (and (not (= x56 x28)) (not (= x28 x60))) (not (= x28 x45))))) (or (or (and (not (= x41 x5)) (and (and (and (not (= x41 x56)) (not (= x60 x41))) (not (= x41 x45))) (not (= x41 x32)))) (or (and (not (= x5 x140)) (and (and (not (= x45 x140)) (and (not (= x60 x140)) (not (= x140 x56)))) (not (= x32 x140)))) (and (and (and (not (= x8 x45)) (and (not (= x8 x56)) (not (= x60 x8)))) (not (= x32 x8))) (not (= x8 x5))))) (and (not (= x104 x5)) (and (not (= x32 x104)) (and (not (= x104 x45)) (and (not (= x56 x104)) (not (= x104 x60))))))))))
(assert (or (or (or (and (and (not (= x41 (x39 (x39 x104 x41) x104))) (and (and (not (= (x39 (x39 x140 x41) x140) x41)) (not (= (x39 (x39 x8 x41) x8) x41))) (not (= x41 (x39 (x39 x41 x41) x41))))) (not (= (x39 (x39 x28 x41) x28) x41))) (or (and (and (and (not (= (x39 (x39 x41 x8) x41) x8)) (and (not (= (x39 (x39 x140 x8) x140) x8)) (not (= (x39 (x39 x8 x8) x8) x8)))) (not (= x8 (x39 (x39 x104 x8) x104)))) (not (= x8 (x39 (x39 x28 x8) x28)))) (and (and (and (not (= x140 (x39 (x39 x41 x140) x41))) (and (not (= (x39 (x39 x8 x140) x8) x140)) (not (= (x39 (x39 x140 x140) x140) x140)))) (not (= (x39 (x39 x104 x140) x104) x140))) (not (= x140 (x39 (x39 x28 x140) x28)))))) (and (not (= x104 (x39 (x39 x28 x104) x28))) (and (and (not (= (x39 (x39 x41 x104) x41) x104)) (and (not (= (x39 (x39 x8 x104) x8) x104)) (not (= x104 (x39 (x39 x140 x104) x140))))) (not (= x104 (x39 (x39 x104 x104) x104)))))) (and (and (not (= (x39 (x39 x104 x28) x104) x28)) (and (not (= (x39 (x39 x41 x28) x41) x28)) (and (not (= x28 (x39 (x39 x8 x28) x8))) (not (= (x39 (x39 x140 x28) x140) x28))))) (not (= (x39 (x39 x28 x28) x28) x28)))))
(assert (and (= (x39 x104 x41) x28) (and (and (= x8 (x39 x41 x140)) (= x140 (x39 x104 x28))) (= x104 (x39 x41 x41)))))
(assert (let ((x113 (x39 x41 x140)) (x103 (x39 x104 x41)) (x72 (x39 x140 x41)) (x127 (x39 x104 x140)) (x134 (x39 x104 x28)) (x5 (x39 x8 x28)) (x123 (x39 x140 x28)) (x135 (x39 x41 x41)) (x88 (x39 x28 x8)) (x149 (x39 x41 x8)) (x32 (x39 x8 x104)) (x125 (x39 x41 x104)) (x92 (x39 x104 x104)) (x79 (x39 x28 x140)) (x23 (x39 x104 x8)) (x150 (x39 x28 x104)) (x119 (x39 x41 x28)) (x56 (x39 x8 x8)) (x54 (x39 x140 x8)) (x27 (x39 x140 x104)) (x49 (x39 x28 x41)) (x45 (x39 x8 x41)) (x76 (x39 x140 x140)) (x60 (x39 x8 x140)) (x110 (x39 x28 x28))) (and (and (and (and (and (and (and (and (or (or (or (= x56 x41) (or (= x56 x140) (= x56 x8))) (= x104 x56)) (= x56 x28)) (or (= x60 x28) (or (= x104 x60) (or (= x60 x41) (or (= x60 x8) (= x140 x60)))))) (or (or (or (= x45 x41) (or (= x45 x140) (= x8 x45))) (= x104 x45)) (= x28 x45))) (or (or (or (= x41 x32) (or (= x32 x8) (= x32 x140))) (= x32 x104)) (= x32 x28))) (or (= x5 x28) (or (or (= x41 x5) (or (= x140 x5) (= x8 x5))) (= x5 x104)))) (and (or (= x123 x28) (or (= x104 x123) (or (or (= x123 x140) (= x123 x8)) (= x41 x123)))) (and (and (or (or (= x104 x72) (or (= x41 x72) (or (= x72 x140) (= x8 x72)))) (= x28 x72)) (and (or (= x28 x76) (or (= x104 x76) (or (= x41 x76) (or (= x76 x8) (= x76 x140))))) (or (= x54 x28) (or (= x54 x104) (or (= x54 x41) (or (= x54 x8) (= x140 x54))))))) (or (or (= x104 x27) (or (= x41 x27) (or (= x140 x27) (= x8 x27)))) (= x27 x28))))) (and (or (or (or (= x41 x119) (or (= x8 x119) (= x119 x140))) (= x119 x104)) (= x28 x119)) (and (or (= x125 x28) (or (= x104 x125) (or (= x125 x41) (or (= x140 x125) (= x8 x125))))) (and (or (or (= x104 x135) (or (or (= x135 x140) (= x8 x135)) (= x135 x41))) (= x135 x28)) (and (or (or (or (or (= x113 x140) (= x113 x8)) (= x41 x113)) (= x113 x104)) (= x28 x113)) (or (= x28 x149) (or (or (= x149 x41) (or (= x140 x149) (= x149 x8))) (= x104 x149)))))))) (and (and (and (and (or (or (= x104 x127) (or (= x41 x127) (or (= x127 x8) (= x140 x127)))) (= x127 x28)) (or (or (= x104 x23) (or (= x23 x41) (or (= x23 x8) (= x23 x140)))) (= x28 x23))) (or (= x103 x28) (or (= x103 x104) (or (or (= x103 x140) (= x8 x103)) (= x41 x103))))) (or (= x92 x28) (or (or (or (= x92 x140) (= x92 x8)) (= x41 x92)) (= x92 x104)))) (or (= x134 x28) (or (or (= x41 x134) (or (= x134 x8) (= x140 x134))) (= x104 x134))))) (and (and (and (or (or (or (= x41 x49) (or (= x140 x49) (= x8 x49))) (= x104 x49)) (= x28 x49)) (and (or (or (= x104 x88) (or (= x88 x41) (or (= x88 x8) (= x88 x140)))) (= x28 x88)) (or (or (= x104 x79) (or (or (= x79 x8) (= x140 x79)) (= x41 x79))) (= x28 x79)))) (or (= x150 x28) (or (= x104 x150) (or (= x150 x41) (or (= x140 x150) (= x8 x150)))))) (or (= x110 x28) (or (or (or (= x140 x110) (= x110 x8)) (= x110 x41)) (= x104 x110)))))))
(assert (or (or (or (not (= x41 (x39 x41 (x39 x41 x41)))) (or (not (= x140 (x39 x140 (x39 x140 x140)))) (not (= (x39 x8 (x39 x8 x8)) x8)))) (not (= x104 (x39 x104 (x39 x104 x104))))) (not (= x28 (x39 x28 (x39 x28 x28))))))
(assert (let ((x27 (x39 x41 x41)) (x113 (x39 x104 x140)) (x23 (x39 x104 x104)) (x45 (x39 x8 x140)) (x135 (x39 x140 x104)) (x119 (x39 x41 x104)) (x54 (x39 x8 x41)) (x127 (x39 x28 x8)) (x150 (x39 x104 x28)) (x60 (x39 x140 x8)) (x123 (x39 x104 x8)) (x32 (x39 x140 x140)) (x110 (x39 x28 x28)) (x56 (x39 x8 x8)) (x149 (x39 x8 x104)) (x92 (x39 x28 x140)) (x134 (x39 x140 x28)) (x88 (x39 x28 x41)) (x103 (x39 x8 x28)) (x125 (x39 x104 x41)) (x5 (x39 x41 x8)) (x49 (x39 x28 x104)) (x79 (x39 x41 x28)) (x76 (x39 x41 x140)) (x72 (x39 x140 x41))) (or (or (or (or (and (and (and (= x72 x76) (and (= x32 x32) (= x45 x60))) (= x135 x113)) (= x92 x134)) (and (and (and (and (= x60 x45) (= x56 x56)) (= x5 x54)) (= x149 x123)) (= x103 x127))) (and (and (= x125 x119) (and (= x27 x27) (and (= x5 x54) (= x72 x76)))) (= x79 x88))) (and (and (and (and (= x149 x123) (= x113 x135)) (= x119 x125)) (= x23 x23)) (= x49 x150))) (and (and (= x150 x49) (and (= x88 x79) (and (= x127 x103) (= x134 x92)))) (= x110 x110)))))
(assert (and (or (or (= x104 (x39 (x39 x28 x104) x28)) (or (= x41 (x39 (x39 x28 x41) x28)) (or (= x8 (x39 (x39 x28 x8) x28)) (= (x39 (x39 x28 x140) x28) x140)))) (= x28 (x39 (x39 x28 x28) x28))) (and (or (or (= x104 (x39 (x39 x104 x104) x104)) (or (= x41 (x39 (x39 x104 x41) x104)) (or (= x8 (x39 (x39 x104 x8) x104)) (= (x39 (x39 x104 x140) x104) x140)))) (= x28 (x39 (x39 x104 x28) x104))) (and (or (= x28 (x39 (x39 x41 x28) x41)) (or (or (or (= x8 (x39 (x39 x41 x8) x41)) (= x140 (x39 (x39 x41 x140) x41))) (= x41 (x39 (x39 x41 x41) x41))) (= x104 (x39 (x39 x41 x104) x41)))) (and (or (or (or (or (= (x39 (x39 x8 x8) x8) x8) (= (x39 (x39 x8 x140) x8) x140)) (= x41 (x39 (x39 x8 x41) x8))) (= (x39 (x39 x8 x104) x8) x104)) (= x28 (x39 (x39 x8 x28) x8))) (or (= (x39 (x39 x140 x28) x140) x28) (or (or (= x41 (x39 (x39 x140 x41) x140)) (or (= x8 (x39 (x39 x140 x8) x140)) (= (x39 (x39 x140 x140) x140) x140))) (= (x39 (x39 x140 x104) x140) x104))))))))
(assert (and (or (= (x39 x28 (x39 x28 x28)) x28) (or (or (= x41 (x39 x28 (x39 x28 x41))) (or (= x140 (x39 x28 (x39 x28 x140))) (= x8 (x39 x28 (x39 x28 x8))))) (= x104 (x39 x28 (x39 x28 x104))))) (and (and (or (= (x39 x41 (x39 x41 x28)) x28) (or (= x104 (x39 x41 (x39 x41 x104))) (or (or (= x8 (x39 x41 (x39 x41 x8))) (= x140 (x39 x41 (x39 x41 x140)))) (= (x39 x41 (x39 x41 x41)) x41)))) (and (or (= x28 (x39 x8 (x39 x8 x28))) (or (= x104 (x39 x8 (x39 x8 x104))) (or (= x41 (x39 x8 (x39 x8 x41))) (or (= x8 (x39 x8 (x39 x8 x8))) (= x140 (x39 x8 (x39 x8 x140))))))) (or (= x28 (x39 x140 (x39 x140 x28))) (or (= (x39 x140 (x39 x140 x104)) x104) (or (= (x39 x140 (x39 x140 x41)) x41) (or (= (x39 x140 (x39 x140 x8)) x8) (= (x39 x140 (x39 x140 x140)) x140))))))) (or (or (= (x39 x104 (x39 x104 x104)) x104) (or (or (= x8 (x39 x104 (x39 x104 x8))) (= (x39 x104 (x39 x104 x140)) x140)) (= (x39 x104 (x39 x104 x41)) x41))) (= x28 (x39 x104 (x39 x104 x28)))))))
(assert (let ((x5 (x39 (x39 x28 x28) x28)) (x60 (x39 (x39 x140 x140) x140)) (x45 (x39 (x39 x41 x41) x41)) (x32 (x39 (x39 x104 x104) x104)) (x56 (x39 (x39 x8 x8) x8))) (and (and (and (or (= x5 x41) (or (or (or (= x41 x56) (= x41 x60)) (= x45 x41)) (= x41 x32))) (and (or (or (= x140 x32) (or (= x45 x140) (or (= x56 x140) (= x60 x140)))) (= x140 x5)) (or (or (= x8 x32) (or (= x45 x8) (or (= x60 x8) (= x8 x56)))) (= x8 x5)))) (or (= x5 x104) (or (= x32 x104) (or (= x104 x45) (or (= x56 x104) (= x60 x104)))))) (or (or (= x28 x32) (or (= x28 x45) (or (= x28 x60) (= x56 x28)))) (= x28 x5)))))
(assert (and (or (= x28 (x39 x28 (x39 x28 x28))) (or (or (= (x39 x41 (x39 x28 x41)) x28) (or (= (x39 x140 (x39 x28 x140)) x28) (= (x39 x8 (x39 x28 x8)) x28))) (= (x39 x104 (x39 x28 x104)) x28))) (and (and (or (= x41 (x39 x28 (x39 x41 x28))) (or (or (= (x39 x41 (x39 x41 x41)) x41) (or (= x41 (x39 x140 (x39 x41 x140))) (= (x39 x8 (x39 x41 x8)) x41))) (= (x39 x104 (x39 x41 x104)) x41))) (and (or (= x140 (x39 x28 (x39 x140 x28))) (or (or (or (= (x39 x140 (x39 x140 x140)) x140) (= x140 (x39 x8 (x39 x140 x8)))) (= (x39 x41 (x39 x140 x41)) x140)) (= (x39 x104 (x39 x140 x104)) x140))) (or (= (x39 x28 (x39 x8 x28)) x8) (or (or (or (= x8 (x39 x140 (x39 x8 x140))) (= (x39 x8 (x39 x8 x8)) x8)) (= x8 (x39 x41 (x39 x8 x41)))) (= x8 (x39 x104 (x39 x8 x104))))))) (or (or (or (or (= (x39 x8 (x39 x104 x8)) x104) (= x104 (x39 x140 (x39 x104 x140)))) (= x104 (x39 x41 (x39 x104 x41)))) (= x104 (x39 x104 (x39 x104 x104)))) (= x104 (x39 x28 (x39 x104 x28)))))))
(assert (or (or (or (= (x39 x41 x41) x41) (or (= x140 (x39 x140 x140)) (= x8 (x39 x8 x8)))) (= x104 (x39 x104 x104))) (= (x39 x28 x28) x28)))
(assert (let ((x92 (x39 x104 x104)) (x123 (x39 x28 x140)) (x150 (x39 x104 x28)) (x76 (x39 x140 x140)) (x149 (x39 x8 x41)) (x113 (x39 x140 x41)) (x49 (x39 x41 x28)) (x88 (x39 x8 x28)) (x127 (x39 x140 x104)) (x45 (x39 x41 x8)) (x119 (x39 x28 x41)) (x27 (x39 x104 x140)) (x23 (x39 x8 x104)) (x54 (x39 x8 x140)) (x72 (x39 x41 x140)) (x134 (x39 x28 x104)) (x110 (x39 x28 x28)) (x32 (x39 x104 x8)) (x125 (x39 x104 x41)) (x60 (x39 x140 x8)) (x79 (x39 x140 x28)) (x5 (x39 x28 x8)) (x56 (x39 x8 x8)) (x135 (x39 x41 x41)) (x103 (x39 x41 x104))) (and (and (and (not (= x110 x134)) (and (and (and (and (and (and (and (not (= x5 x134)) (and (not (= x119 x5)) (not (= x5 x123)))) (not (= x5 x110))) (not (= x119 x123))) (not (= x123 x134))) (not (= x123 x110))) (not (= x119 x134))) (not (= x119 x110)))) (and (and (and (and (not (= x79 x127)) (and (and (and (and (and (and (not (= x79 x60)) (and (and (not (= x76 x60)) (not (= x113 x60))) (not (= x60 x127)))) (not (= x76 x113))) (not (= x76 x127))) (not (= x79 x76))) (not (= x113 x127))) (not (= x113 x79)))) (and (and (not (= x149 x88)) (and (and (not (= x88 x54)) (and (and (not (= x149 x54)) (and (not (= x56 x88)) (and (and (not (= x54 x56)) (not (= x149 x56))) (not (= x56 x23))))) (not (= x23 x54)))) (not (= x149 x23)))) (not (= x23 x88)))) (and (and (and (and (and (not (= x72 x103)) (and (not (= x135 x72)) (and (and (not (= x103 x45)) (and (not (= x45 x72)) (not (= x45 x135)))) (not (= x49 x45))))) (not (= x72 x49))) (not (= x135 x103))) (not (= x135 x49))) (not (= x49 x103)))) (and (not (= x92 x150)) (and (not (= x125 x150)) (and (and (not (= x27 x150)) (and (not (= x27 x92)) (and (and (and (and (not (= x32 x125)) (not (= x27 x32))) (not (= x32 x92))) (not (= x32 x150))) (not (= x27 x125))))) (not (= x125 x92))))))) (and (and (and (not (= x134 x92)) (and (not (= x103 x134)) (and (not (= x103 x92)) (and (and (and (not (= x103 x127)) (and (not (= x134 x23)) (and (not (= x92 x23)) (and (not (= x23 x127)) (not (= x23 x103)))))) (not (= x127 x92))) (not (= x127 x134)))))) (and (and (not (= x119 x125)) (and (not (= x135 x119)) (and (and (not (= x119 x113)) (and (and (and (not (= x119 x149)) (and (and (not (= x135 x149)) (not (= x113 x149))) (not (= x149 x125)))) (not (= x135 x113))) (not (= x125 x113)))) (not (= x125 x135))))) (and (and (and (and (not (= x45 x32)) (and (and (and (not (= x60 x45)) (and (not (= x56 x5)) (and (and (not (= x45 x56)) (not (= x60 x56))) (not (= x56 x32))))) (not (= x32 x60))) (not (= x5 x60)))) (not (= x5 x45))) (not (= x32 x5))) (and (and (not (= x123 x72)) (and (not (= x27 x72)) (and (and (and (not (= x76 x72)) (and (not (= x54 x123)) (and (and (not (= x54 x72)) (not (= x76 x54))) (not (= x27 x54))))) (not (= x76 x27))) (not (= x76 x123))))) (not (= x27 x123)))))) (and (not (= x110 x150)) (and (not (= x49 x110)) (and (and (and (not (= x150 x79)) (and (not (= x79 x49)) (and (not (= x110 x88)) (and (not (= x88 x150)) (and (not (= x49 x88)) (not (= x88 x79))))))) (not (= x110 x79))) (not (= x49 x150)))))))))
(assert (let ((x131 (x39 x28 x8)) (x91 (x39 x140 x8)) (x94 (x39 x28 x41)) (x99 (x39 x41 x28)) (x40 (x39 x41 x41)) (x98 (x39 x8 x104)) (x62 (x39 x41 x140)) (x30 (x39 x8 x8)) (x156 (x39 x8 x41)) (x19 (x39 x140 x104)) (x126 (x39 x104 x104)) (x11 (x39 x140 x28)) (x29 (x39 x41 x8)) (x58 (x39 x140 x41)) (x117 (x39 x8 x28)) (x1 (x39 x8 x140)) (x95 (x39 x104 x8)) (x101 (x39 x28 x104)) (x22 (x39 x41 x104)) (x85 (x39 x104 x140)) (x137 (x39 x140 x140)) (x133 (x39 x28 x140)) (x106 (x39 x104 x28)) (x120 (x39 x104 x41)) (x35 (x39 x28 x28))) (let ((x148 (= x137 x41)) (x2 (= x30 x28)) (x92 (= x133 x8)) (x111 (= x41 x62)) (x158 (= x120 x28)) (x68 (= x85 x28)) (x12 (= x1 x28)) (x130 (= x28 x131)) (x147 (= x41 x117)) (x37 (= x156 x41)) (x128 (= x1 x41)) (x48 (= x140 x35)) (x36 (= x40 x140)) (x43 (= x137 x140)) (x136 (= x126 x41)) (x157 (= x104 x40)) (x76 (= x62 x8)) (x16 (= x58 x28)) (x115 (= x95 x104)) (x50 (= x28 x156)) (x141 (= x11 x28)) (x96 (= x140 x85)) (x114 (= x104 x99)) (x151 (= x85 x41)) (x61 (= x28 x35)) (x138 (= x104 x22)) (x89 (= x126 x28)) (x27 (= x8 x40)) (x105 (= x133 x41)) (x52 (= x133 x28)) (x31 (= x101 x104)) (x10 (= x41 x131)) (x123 (= x95 x8)) (x80 (= x91 x41)) (x69 (= x140 x131)) (x122 (= x22 x140)) (x86 (= x104 x11)) (x49 (= x101 x8)) (x75 (= x104 x131)) (x142 (= x94 x41)) (x83 (= x28 x91)) (x143 (= x28 x40)) (x73 (= x41 x120)) (x64 (= x41 x35)) (x77 (= x95 x28)) (x60 (= x91 x8)) (x9 (= x140 x98)) (x13 (= x106 x28)) (x51 (= x117 x28)) (x74 (= x19 x140)) (x87 (= x41 x40)) (x90 (= x58 x41)) (x152 (= x140 x29)) (x84 (= x98 x104)) (x159 (= x140 x99)) (x103 (= x117 x8)) (x44 (= x140 x120)) (x132 (= x41 x106)) (x124 (= x104 x156)) (x107 (= x41 x30)) (x66 (= x41 x11)) (x3 (= x140 x62)) (x118 (= x19 x104)) (x5 (= x8 x29)) (x54 (= x8 x156)) (x113 (= x85 x8)) (x65 (= x104 x58)) (x109 (= x101 x28)) (x127 (= x8 x131)) (x71 (= x104 x126)) (x145 (= x106 x140)) (x154 (= x28 x94)) (x100 (= x98 x28)) (x135 (= x19 x8)) (x14 (= x140 x117)) (x24 (= x19 x41)) (x78 (= x156 x140)) (x53 (= x104 x94)) (x46 (= x22 x41)) (x121 (= x94 x140)) (x45 (= x1 x8)) (x55 (= x58 x140)) (x79 (= x8 x99)) (x134 (= x11 x8)) (x20 (= x140 x11)) (x32 (= x137 x8)) (x38 (= x99 x41)) (x110 (= x8 x35)) (x56 (= x30 x8)) (x18 (= x29 x28)) (x42 (= x104 x1)) (x47 (= x137 x104)) (x21 (= x104 x117)) (x17 (= x106 x104)) (x6 (= x104 x91)) (x72 (= x8 x58)) (x34 (= x140 x91)) (x59 (= x101 x140)) (x116 (= x28 x19)) (x97 (= x29 x41)) (x93 (= x30 x140)) (x70 (= x28 x137)) (x150 (= x8 x106)) (x102 (= x28 x99)) (x119 (= x8 x22)) (x57 (= x126 x140)) (x88 (= x8 x94)) (x4 (= x104 x120)) (x25 (= x140 x1)) (x108 (= x95 x41)) (x81 (= x28 x22)) (x7 (= x104 x35)) (x144 (= x30 x104)) (x146 (= x104 x62)) (x153 (= x62 x28)) (x149 (= x98 x8)) (x23 (= x8 x126)) (x33 (= x41 x98)) (x125 (= x120 x8)) (x63 (= x140 x133)) (x82 (= x29 x104)) (x112 (= x140 x95)) (x26 (= x41 x101)) (x139 (= x85 x104)) (x129 (= x133 x104))) (and (and (or (or (and x7 x7) (or (or (or (and x129 x86) (and x75 x21)) (and x53 x114)) (and x31 x17))) (or (or (or (or (or (or (and x65 x146) (or (and x42 x6) (and x47 x47))) (and x139 x118)) (and x86 x129)) (or (or (or (or (and x144 x144) (and x6 x42)) (and x124 x82)) (and x115 x84)) (and x75 x21))) (or (or (or (and x157 x157) (or (and x124 x82) (and x65 x146))) (and x138 x4)) (and x53 x114))) (or (and x31 x17) (or (and x71 x71) (or (or (and x118 x139) (and x115 x84)) (and x4 x138)))))) (and (and (or (or (or (or (or (or (and x112 x9) (and x96 x74)) (and x44 x122)) (and x57 x57)) (and x59 x145)) (or (or (or (or (or (and x55 x3) (or (and x43 x43) (and x25 x34))) (and x96 x74)) (and x20 x63)) (or (or (or (or (and x34 x25) (and x93 x93)) (and x152 x78)) (and x9 x112)) (and x69 x14))) (or (or (and x44 x122) (or (or (and x152 x78) (and x55 x3)) (and x36 x36))) (and x159 x121)))) (or (and x48 x48) (or (and x59 x145) (or (or (and x63 x20) (and x69 x14)) (and x159 x121))))) (or (or (and x110 x110) (or (and x49 x150) (or (or (and x103 x127) (and x134 x92)) (and x79 x88)))) (or (or (and x49 x150) (or (and x23 x23) (or (and x125 x119) (or (and x113 x135) (and x149 x123))))) (or (or (or (and x103 x127) (or (or (and x54 x5) (or (and x60 x45) (and x56 x56))) (and x123 x149))) (or (and x134 x92) (or (and x135 x113) (or (or (and x60 x45) (and x32 x32)) (and x76 x72))))) (or (or (or (and x27 x27) (or (and x54 x5) (and x76 x72))) (and x119 x125)) (and x79 x88)))))) (or (or (or (and x26 x132) (or (and x136 x136) (or (or (and x151 x24) (and x33 x108)) (and x73 x46)))) (or (or (or (or (or (or (and x128 x80) (and x107 x107)) (and x37 x97)) (and x33 x108)) (and x10 x147)) (or (and x66 x105) (or (and x24 x151) (or (and x90 x111) (or (and x148 x148) (and x128 x80)))))) (or (and x38 x142) (or (or (or (and x90 x111) (and x97 x37)) (and x87 x87)) (and x46 x73))))) (or (and x64 x64) (or (or (or (and x147 x10) (and x105 x66)) (and x38 x142)) (and x26 x132)))))) (or (or (or (or (or (or (or (or (and x83 x12) (and x70 x70)) (and x153 x16)) (and x116 x68)) (and x52 x141)) (or (and x51 x130) (or (and x77 x100) (or (or (and x83 x12) (and x2 x2)) (and x50 x18))))) (or (and x154 x102) (or (and x81 x158) (or (or (and x50 x18) (and x153 x16)) (and x143 x143))))) (or (or (or (and x81 x158) (or (and x100 x77) (and x68 x116))) (and x89 x89)) (and x109 x13))) (or (and x61 x61) (or (and x109 x13) (or (or (and x130 x51) (and x141 x52)) (and x102 x154)))))))))
(check-sat)
(exit)
